column=8;
row=8;
Board=[|0,0,0,1,3,0,0,0|0,0,7,8,6,3,2,0|0,0,0,0,7,0,0,3|0,0,1,0,0,0,0,0|0,0,0,0,0,0,4,0|5,7,0,0,0,1,3,0|7,2,0,0,0,8,0,0|0,0,2,0,5,4,0,1|];
horizontal=[|0,2,0,1,0,0,2|1,1,1,0,0,0,0|0,1,0,1,0,0,0|0,2,0,2,0,0,0|2,1,0,2,0,0,1|0,0,0,0,2,0,0|2,1,0,0,1,2,0|2,2,1,0,2,0,0|];
vertical=[|2,0,0,1,0,2,0,0|1,2,0,0,0,0,0,0|0,0,0,0,0,1,2,0|0,0,0,0,2,2,0,0|0,0,0,0,0,0,2,0|0,2,2,2,2,0,0,1|2,1,0,1,0,2,1,2|];
